p cnf 149 469
c t mc
-4 2 0
-4 3 0
-2 -3 4 0
5 -1 0
5 -4 0
1 4 -5 0
-6 -4 -7 0
6 4 -7 0
-6 4 7 0
6 -4 7 0
9 -7 0
9 8 0
7 -8 -9 0
5 9 -10 0
-5 -9 -10 0
5 -9 10 0
-5 9 10 0
11 -12 -13 0
-11 12 -13 0
11 12 13 0
-11 -12 13 0
15 -13 0
15 14 0
13 -14 -15 0
18 -16 0
18 17 0
16 -17 -18 0
-20 -16 0
-20 -19 0
16 19 20 0
22 -20 0
22 -21 0
20 21 -22 0
-23 18 0
-23 -22 0
-18 22 23 0
24 -23 0
24 -3 0
23 3 -24 0
25 -15 0
25 -24 0
15 24 -25 0
-10 25 -26 0
10 -25 -26 0
-10 -25 26 0
10 25 26 0
28 18 0
28 27 0
-18 -27 -28 0
-30 -29 0
-30 -12 0
29 12 30 0
-4 -30 -31 0
4 30 -31 0
-4 30 31 0
4 -30 31 0
32 -6 0
32 -31 0
6 31 -32 0
-33 -18 0
-33 -14 0
18 14 33 0
34 -32 0
34 33 0
32 -33 -34 0
28 34 -35 0
-28 -34 -35 0
28 -34 35 0
-28 34 35 0
-11 -36 -37 0
11 36 -37 0
-11 36 37 0
11 -36 37 0
31 -37 -38 0
-31 37 -38 0
31 37 38 0
-31 -37 38 0
-39 -38 0
-39 -32 0
38 32 39 0
40 23 0
40 39 0
-23 -39 -40 0
-27 37 -41 0
27 -37 -41 0
-27 -37 41 0
27 37 41 0
-42 19 0
-42 -30 0
-19 30 42 0
43 41 0
43 -42 0
-41 42 -43 0
44 -20 0
44 -16 0
20 16 -44 0
45 44 0
45 -6 0
-44 6 -45 0
-46 -45 0
-46 1 0
45 -1 46 0
47 -36 -48 0
-47 36 -48 0
47 36 48 0
-47 -36 48 0
48 -6 -49 0
-48 6 -49 0
48 6 49 0
-48 -6 49 0
-50 49 0
-50 14 0
-49 -14 50 0
51 19 0
51 -50 0
-19 50 -51 0
-46 51 -52 0
46 -51 -52 0
-46 -51 52 0
46 51 52 0
-53 -43 0
-53 -52 0
43 52 53 0
40 -53 -54 0
-40 53 -54 0
40 53 54 0
-40 -53 54 0
30 42 -55 0
-30 -42 -55 0
30 -42 55 0
-30 42 55 0
57 -21 0
57 56 0
21 -56 -57 0
57 50 -58 0
-57 -50 -58 0
57 -50 58 0
-57 50 58 0
60 58 0
60 -59 0
-58 59 -60 0
4 61 -62 0
-4 -61 -62 0
4 -61 62 0
-4 61 62 0
-60 -62 -63 0
60 62 -63 0
-60 62 63 0
60 -62 63 0
64 -48 0
64 58 0
48 -58 -64 0
48 -19 -65 0
-48 19 -65 0
48 19 65 0
-48 -19 65 0
-66 -64 0
-66 65 0
64 -65 66 0
67 63 0
67 -66 0
-63 66 -67 0
-14 -12 -68 0
14 12 -68 0
-14 12 68 0
14 -12 68 0
-69 59 0
-69 68 0
-59 -68 69 0
-67 -69 -70 0
67 69 -70 0
-67 69 70 0
67 -69 70 0
-55 -70 -71 0
55 70 -71 0
-55 70 71 0
55 -70 71 0
54 71 -72 0
-54 -71 -72 0
54 -71 72 0
-54 71 72 0
73 35 0
73 -72 0
-35 72 -73 0
-6 -2 -74 0
6 2 -74 0
-6 2 74 0
6 -2 74 0
-2 17 -75 0
2 -17 -75 0
-2 -17 75 0
2 17 75 0
-76 -74 0
-76 75 0
74 -75 76 0
77 -17 0
77 61 0
17 -61 -77 0
-79 77 0
-79 78 0
-77 -78 79 0
-80 76 0
-80 -79 0
-76 79 80 0
33 81 -82 0
-33 -81 -82 0
33 -81 82 0
-33 81 82 0
80 -82 -83 0
-80 82 -83 0
80 82 83 0
-80 -82 83 0
-84 -74 0
-84 -51 0
74 51 84 0
84 31 -85 0
-84 -31 -85 0
84 -31 85 0
-84 31 85 0
86 -20 0
86 -69 0
20 69 -86 0
-87 -86 0
-87 -39 0
86 39 87 0
88 66 0
88 14 0
-66 -14 -88 0
89 -87 0
89 -88 0
87 88 -89 0
-90 85 0
-90 -89 0
-85 89 90 0
83 90 -91 0
-83 -90 -91 0
83 -90 91 0
-83 90 91 0
92 -73 0
92 -91 0
73 91 -92 0
93 -26 0
93 -92 0
26 92 -93 0
-94 -65 0
-94 57 0
65 -57 94 0
-95 -75 0
-95 2 0
75 -2 95 0
96 -94 0
96 95 0
94 -95 -96 0
-37 30 -97 0
37 -30 -97 0
-37 -30 97 0
37 30 97 0
-98 -96 0
-98 -97 0
96 97 98 0
-93 98 -99 0
93 -98 -99 0
-93 -98 99 0
93 98 99 0
101 74 0
101 -100 0
-74 100 -101 0
-23 18 -102 0
23 -18 -102 0
-23 -18 102 0
23 18 102 0
-101 102 -103 0
101 -102 -103 0
-101 -102 103 0
101 102 103 0
104 99 0
104 -103 0
-99 103 -104 0
105 -48 0
105 62 0
48 -62 -105 0
-106 -69 0
-106 38 0
69 -38 106 0
106 58 -107 0
-106 -58 -107 0
106 -58 107 0
-106 58 107 0
-108 57 0
-108 100 0
-57 -100 108 0
107 -108 -109 0
-107 108 -109 0
107 108 109 0
-107 -108 109 0
-110 62 0
-110 50 0
-62 -50 110 0
-81 33 -111 0
81 -33 -111 0
-81 -33 111 0
81 33 111 0
-112 110 0
-112 111 0
-110 -111 112 0
-109 -112 -113 0
109 112 -113 0
-109 112 113 0
109 -112 113 0
114 -60 0
114 -49 0
60 49 -114 0
-115 -4 0
-115 -50 0
4 50 115 0
-116 114 0
-116 -115 0
-114 115 116 0
-19 -65 -117 0
19 65 -117 0
-19 65 117 0
19 -65 117 0
118 -1 0
118 -117 0
1 117 -118 0
119 66 0
119 -32 0
-66 32 -119 0
-120 -118 0
-120 -119 0
118 119 120 0
121 -116 0
121 -120 0
116 120 -121 0
-113 -121 -122 0
113 121 -122 0
-113 121 122 0
113 -121 122 0
-49 -81 -123 0
49 81 -123 0
-49 81 123 0
49 -81 123 0
-68 123 -124 0
68 -123 -124 0
-68 -123 124 0
68 123 124 0
-125 60 0
-125 75 0
-60 -75 125 0
-41 -126 -127 0
41 126 -127 0
-41 126 127 0
41 -126 127 0
128 -125 0
128 -127 0
125 127 -128 0
124 128 -129 0
-124 -128 -129 0
124 -128 129 0
-124 128 129 0
130 122 0
130 -129 0
-122 129 -130 0
-131 -105 0
-131 130 0
105 -130 131 0
7 81 -132 0
-7 -81 -132 0
7 -81 132 0
-7 81 132 0
132 -17 -133 0
-132 17 -133 0
132 17 133 0
-132 -17 133 0
134 20 0
134 -16 0
-20 16 -134 0
-135 75 0
-135 -59 0
-75 59 135 0
-17 -135 -136 0
17 135 -136 0
-17 135 136 0
17 -135 136 0
137 -52 0
137 136 0
52 -136 -137 0
138 -134 0
138 -137 0
134 137 -138 0
-139 -133 0
-139 -138 0
133 138 139 0
13 -140 -141 0
-13 140 -141 0
13 140 141 0
-13 -140 141 0
-142 139 0
-142 -141 0
-139 141 142 0
-143 16 0
-143 64 0
-16 -64 143 0
144 143 0
144 -13 0
-143 13 -144 0
-145 57 0
-145 -44 0
-57 44 145 0
-146 -144 0
-146 145 0
144 -145 146 0
-147 142 0
-147 146 0
-142 -146 147 0
-131 -147 -148 0
131 147 -148 0
-131 147 148 0
131 -147 148 0
-149 104 0
-149 -148 0
-104 148 149 0
5 -112 -40 68 0
22 -90 -85 -101 -83 130 -120 0
-92 116 135 123 0
20 8 37 12 93 0
39 49 124 -50 83 0
78 28 -44 56 -135 -20 17 118 0
57 -41 -79 -111 21 127 0
-114 66 68 99 -25 -29 -104 -43 13 0
75 122 -143 0
-131 -27 105 112 -48 82 148 -132 121 15 0
-136 48 30 143 17 -91 -70 0
-113 81 118 4 91 -119 12 111 0
-42 19 28 -2 -22 0
-146 121 -92 60 70 7 62 -50 0
-138 114 -25 96 125 -117 3 0
-50 -62 -3 -25 59 -8 68 143 20 0
90 -33 71 -18 -97 -132 -114 -4 0
-116 -6 -5 109 129 34 90 55 -86 -28 0
87 122 25 -24 61 -15 -13 101 0
84 101 -11 -95 -124 -96 -118 19 62 59 0
-9 -23 -93 34 -17 0
-53 -135 55 18 0
134 113 -44 3 40 -121 -7 -85 0
-138 63 -112 50 0
-71 131 -99 -29 0
-63 -142 118 35 59 0
52 -51 5 -123 89 39 0
-125 -30 74 31 -59 -32 -55 104 118 0
-71 65 -15 0
-104 43 -21 -90 114 0
-73 15 -61 120 44 125 -59 0
48 -73 -119 72 -74 71 -50 -105 -24 80 0
-139 -116 -149 0
94 -116 -25 105 0
58 -128 -117 10 -48 -94 -31 -20 70 0
-94 -79 -130 25 141 41 -110 0
-122 101 -41 0
-45 61 119 -18 -11 -16 -48 -53 -142 110 0
-1 -78 -77 114 -38 98 -62 -36 -63 143 0
88 139 59 -81 0
-24 30 139 0
147 -90 72 -79 0
-100 4 -109 0
5 138 101 0
43 73 -93 86 -47 -19 0
18 1 118 0
149 0
